p cnf 91 127
-1 19 79 -2 28 30 31 75 91 0 
-3 -4 91 0 
-5 17 18 21 37 38 39 91 0 
-6 91 0 
-7 91 0 
-4 91 0 
-4 -8 49 -9 42 -10 91 0 
-10 91 0 
-11 91 0 
-3 91 0 
-12 91 0 
-13 91 0 
-14 91 0 
-9 42 -10 91 0 
-15 -10 91 0 
-16 41 53 54 57 59 60 62 63 64 65 66 68 69 70 71 77 78 80 81 82 83 86 87 88 89 91 0 
-17 5 18 21 37 38 39 91 0 
-18 5 17 21 37 38 39 91 0 
-19 1 79 91 0 
-20 85 91 0 
-21 5 17 18 37 38 39 91 0 
-4 -10 91 0 
-22 -10 91 0 
-23 -10 91 0 
-24 -10 91 0 
-25 84 -10 91 0 
-22 -25 84 -26 91 0 
-22 -8 49 -9 42 91 0 
-2 28 30 31 75 91 0 
-27 -10 91 0 
-22 -28 2 30 31 75 91 0 
-29 -30 2 28 31 75 91 0 
-22 -29 -31 2 28 30 75 91 0 
-19 1 79 -10 91 0 
-32 -10 91 0 
-7 -10 91 0 
-33 -10 91 0 
-34 91 0 
-35 91 0 
-36 91 0 
-37 5 17 18 21 38 39 91 0 
-38 5 17 18 21 37 39 91 0 
-39 5 17 18 21 37 38 91 0 
-40 91 0 
-41 16 53 54 57 59 60 62 63 64 65 66 68 69 70 71 77 78 80 81 82 83 86 87 88 89 91 0 
-42 9 91 0 
-43 91 0 
-44 -10 91 0 
-45 -10 91 0 
-24 -46 91 0 
-25 84 -46 91 0 
-22 -25 84 -26 91 0 
-46 91 0 
-22 -28 2 30 31 75 91 0 
-14 -10 91 0 
-4 -46 91 0 
-7 -46 91 0 
-4 -8 49 -9 42 91 0 
-47 -10 91 0 
-4 -46 -10 91 0 
-48 91 0 
-49 8 -9 42 91 0 
-3 -10 91 0 
-50 91 0 
-11 -46 -10 91 0 
-44 -14 -10 91 0 
-27 -46 -9 42 91 0 
-51 -8 49 -9 42 91 0 
-44 -46 -10 91 0 
-52 91 0 
-53 16 41 54 57 59 60 62 63 64 65 66 68 69 70 71 77 78 80 81 82 83 86 87 88 89 -10 91 0 
-54 16 41 53 57 59 60 62 63 64 65 66 68 69 70 71 77 78 80 81 82 83 86 87 88 89 -10 91 0 
-55 -10 91 0 
-56 -10 91 0 
-57 16 41 53 54 59 60 62 63 64 65 66 68 69 70 71 77 78 80 81 82 83 86 87 88 89 91 0 
-58 67 91 0 
-59 16 41 53 54 57 60 62 63 64 65 66 68 69 70 71 77 78 80 81 82 83 86 87 88 89 91 0 
-60 16 41 53 54 57 59 62 63 64 65 66 68 69 70 71 77 78 80 81 82 83 86 87 88 89 91 0 
-61 91 0 
-62 16 41 53 54 57 59 60 63 64 65 66 68 69 70 71 77 78 80 81 82 83 86 87 88 89 91 0 
-63 16 41 53 54 57 59 60 62 64 65 66 68 69 70 71 77 78 80 81 82 83 86 87 88 89 91 0 
-64 16 41 53 54 57 59 60 62 63 65 66 68 69 70 71 77 78 80 81 82 83 86 87 88 89 91 0 
-65 16 41 53 54 57 59 60 62 63 64 66 68 69 70 71 77 78 80 81 82 83 86 87 88 89 91 0 
-66 16 41 53 54 57 59 60 62 63 64 65 68 69 70 71 77 78 80 81 82 83 86 87 88 89 91 0 
-67 58 91 0 
-68 16 41 53 54 57 59 60 62 63 64 65 66 69 70 71 77 78 80 81 82 83 86 87 88 89 91 0 
-69 16 41 53 54 57 59 60 62 63 64 65 66 68 70 71 77 78 80 81 82 83 86 87 88 89 91 0 
-70 16 41 53 54 57 59 60 62 63 64 65 66 68 69 71 77 78 80 81 82 83 86 87 88 89 91 0 
-71 16 41 53 54 57 59 60 62 63 64 65 66 68 69 70 77 78 80 81 82 83 86 87 88 89 91 0 
-22 91 0 
-72 91 0 
-33 91 0 
-55 91 0 
-73 91 0 
-74 -37 5 17 18 21 38 39 -75 2 28 30 31 91 0 
-5 17 18 21 37 38 39 -11 91 0 
-76 91 0 
-7 -46 -10 91 0 
-40 91 0 
-53 16 41 54 57 59 60 62 63 64 65 66 68 69 70 71 77 78 80 81 82 83 86 87 88 89 91 0 
-77 16 41 53 54 57 59 60 62 63 64 65 66 68 69 70 71 78 80 81 82 83 86 87 88 89 91 0 
-56 91 0 
-78 16 41 53 54 57 59 60 62 63 64 65 66 68 69 70 71 77 80 81 82 83 86 87 88 89 91 0 
-54 16 41 53 57 59 60 62 63 64 65 66 68 69 70 71 77 78 80 81 82 83 86 87 88 89 91 0 
-79 1 19 91 0 
-80 16 41 53 54 57 59 60 62 63 64 65 66 68 69 70 71 77 78 81 82 83 86 87 88 89 91 0 
-81 16 41 53 54 57 59 60 62 63 64 65 66 68 69 70 71 77 78 80 82 83 86 87 88 89 91 0 
-82 16 41 53 54 57 59 60 62 63 64 65 66 68 69 70 71 77 78 80 81 83 86 87 88 89 91 0 
-1 19 79 -41 16 53 54 57 59 60 62 63 64 65 66 68 69 70 71 77 78 80 81 82 83 86 87 88 89 -4 -10 91 0 
-83 16 41 53 54 57 59 60 62 63 64 65 66 68 69 70 71 77 78 80 81 82 86 87 88 89 -23 91 0 
-84 25 -10 91 0 
-84 25 91 0 
-22 -46 91 0 
-23 -46 91 0 
-2 28 30 31 75 91 0 
-29 -30 2 28 31 75 91 0 
-22 -29 -31 2 28 30 75 91 0 
-19 1 79 -46 91 0 
-32 -46 91 0 
-33 -46 91 0 
-85 20 91 0 
-86 16 41 53 54 57 59 60 62 63 64 65 66 68 69 70 71 77 78 80 81 82 83 87 88 89 91 0 
-87 16 41 53 54 57 59 60 62 63 64 65 66 68 69 70 71 77 78 80 81 82 83 86 88 89 91 0 
-88 16 41 53 54 57 59 60 62 63 64 65 66 68 69 70 71 77 78 80 81 82 83 86 87 89 91 0 
-89 16 41 53 54 57 59 60 62 63 64 65 66 68 69 70 71 77 78 80 81 82 83 86 87 88 91 0 
-34 -10 91 0 
-90 -10 91 0 
